[VALIDATOR STDOUT]
Type-checking move
...action passes type checking.
Type-checking pick
...action passes type checking.
Type-checking drop
...action passes type checking.
Checking plan: /home/jfan5/Safety-gen/runs/benchmark/optic/grippers_20260215_225302/grippers/optic_results/grippers-n3-r26-o24-s24001.plan
Plan to validate:

Plan size: 90
1:
(pick robot3 ball4 room22 lgripper3)
 
2:
(pick robot1 ball19 room12 lgripper1)
 
3:
(move robot2 room19 room9)
 
4:
(move robot1 room12 room19)
 
5:
(move robot3 room22 room2)
 
6:
(move robot2 room9 room3)
 
7:
(drop robot1 ball19 room19 lgripper1)
 
8:
(pick robot3 ball13 room2 rgripper3)
 
9:
(pick robot2 ball2 room3 lgripper2)
 
10:
(move robot3 room2 room10)
 
11:
(move robot2 room3 room2)
 
12:
(move robot1 room19 room1)
 
13:
(drop robot3 ball4 room10 lgripper3)
 
14:
(drop robot3 ball13 room10 rgripper3)
 
15:
(drop robot2 ball2 room2 lgripper2)
 
16:
(pick robot1 ball23 room1 lgripper1)
 
17:
(move robot1 room1 room25)
 
18:
(move robot3 room10 room9)
 
19:
(move robot2 room2 room24)
 
20:
(drop robot1 ball23 room25 lgripper1)
 
21:
(pick robot1 ball16 room25 rgripper1)
 
22:
(pick robot2 ball12 room24 lgripper2)
 
23:
(pick robot2 ball1 room24 rgripper2)
 
24:
(move robot3 room9 room8)
 
25:
(move robot1 room25 room22)
 
26:
(move robot2 room24 room8)
 
27:
(pick robot3 ball20 room8 lgripper3)
 
28:
(pick robot3 ball17 room8 rgripper3)
 
29:
(drop robot1 ball16 room22 rgripper1)
 
30:
(drop robot2 ball12 room8 lgripper2)
 
31:
(move robot3 room8 room26)
 
32:
(move robot2 room8 room6)
 
33:
(move robot1 room22 room20)
 
34:
(drop robot3 ball17 room26 rgripper3)
 
35:
(drop robot2 ball1 room6 rgripper2)
 
36:
(pick robot2 ball14 room6 lgripper2)
 
37:
(pick robot1 ball7 room20 lgripper1)
 
38:
(move robot3 room26 room9)
 
39:
(move robot1 room20 room6)
 
40:
(move robot2 room6 room26)
 
41:
(move robot3 room9 room1)
 
42:
(drop robot1 ball7 room6 lgripper1)
 
43:
(drop robot2 ball14 room26 lgripper2)
 
44:
(pick robot2 ball3 room26 rgripper2)
 
45:
(drop robot3 ball20 room1 lgripper3)
 
46:
(pick robot3 ball18 room1 rgripper3)
 
47:
(move robot2 room26 room16)
 
48:
(move robot3 room1 room9)
 
49:
(move robot1 room6 room14)
 
50:
(move robot1 room14 room7)
 
51:
(drop robot2 ball3 room16 rgripper2)
 
52:
(drop robot3 ball18 room9 rgripper3)
 
53:
(pick robot1 ball8 room7 lgripper1)
 
54:
(move robot2 room16 room9)
 
55:
(move robot3 room9 room7)
 
56:
(move robot1 room7 room11)
 
57:
(pick robot3 ball15 room7 lgripper3)
 
58:
(move robot2 room9 room5)
 
59:
(drop robot1 ball8 room11 lgripper1)
 
60:
(move robot3 room7 room14)
 
61:
(pick robot2 ball6 room5 lgripper2)
 
62:
(drop robot3 ball15 room14 lgripper3)
 
63:
(move robot2 room5 room9)
 
64:
(move robot1 room11 room7)
 
65:
(drop robot2 ball6 room9 lgripper2)
 
66:
(move robot3 room14 room23)
 
67:
(move robot1 room7 room5)
 
68:
(pick robot3 ball5 room23 lgripper3)
 
69:
(move robot2 room9 room7)
 
70:
(pick robot1 ball24 room5 lgripper1)
 
71:
(move robot3 room23 room14)
 
72:
(move robot1 room5 room21)
 
73:
(move robot2 room7 room5)
 
74:
(drop robot3 ball5 room14 lgripper3)
 
75:
(drop robot1 ball24 room21 lgripper1)
 
76:
(pick robot1 ball11 room21 rgripper1)
 
77:
(move robot2 room5 room26)
 
78:
(move robot1 room21 room7)
 
79:
(move robot3 room14 room5)
 
80:
(pick robot2 ball10 room26 lgripper2)
 
81:
(drop robot1 ball11 room7 rgripper1)
 
82:
(move robot2 room26 room5)
 
83:
(move robot3 room5 room18)
 
84:
(drop robot2 ball10 room5 lgripper2)
 
85:
(pick robot3 ball22 room18 lgripper3)
 
86:
(pick robot3 ball21 room18 rgripper3)
 
87:
(move robot3 room18 room26)
 
88:
(drop robot3 ball22 room26 lgripper3)
 
89:
(move robot3 room26 room14)
 
90:
(drop robot3 ball21 room14 rgripper3)
 

Plan Validation details
-----------------------

Checking next happening (time 1)
Deleting (at ball4 room22)
Deleting (free robot3 lgripper3)
Adding (carry robot3 ball4 lgripper3)

Checking next happening (time 2)
Deleting (at ball19 room12)
Deleting (free robot1 lgripper1)
Adding (carry robot1 ball19 lgripper1)

Checking next happening (time 3)
Deleting (at-robby robot2 room19)
Adding (at-robby robot2 room9)

Checking next happening (time 4)
Deleting (at-robby robot1 room12)
Adding (at-robby robot1 room19)

Checking next happening (time 5)
Deleting (at-robby robot3 room22)
Adding (at-robby robot3 room2)

Checking next happening (time 6)
Deleting (at-robby robot2 room9)
Adding (at-robby robot2 room3)

Checking next happening (time 7)
Deleting (carry robot1 ball19 lgripper1)
Adding (at ball19 room19)
Adding (free robot1 lgripper1)

Checking next happening (time 8)
Deleting (at ball13 room2)
Deleting (free robot3 rgripper3)
Adding (carry robot3 ball13 rgripper3)

Checking next happening (time 9)
Deleting (at ball2 room3)
Deleting (free robot2 lgripper2)
Adding (carry robot2 ball2 lgripper2)

Checking next happening (time 10)
Deleting (at-robby robot3 room2)
Adding (at-robby robot3 room10)

Checking next happening (time 11)
Deleting (at-robby robot2 room3)
Adding (at-robby robot2 room2)

Checking next happening (time 12)
Deleting (at-robby robot1 room19)
Adding (at-robby robot1 room1)

Checking next happening (time 13)
Deleting (carry robot3 ball4 lgripper3)
Adding (at ball4 room10)
Adding (free robot3 lgripper3)

Checking next happening (time 14)
Deleting (carry robot3 ball13 rgripper3)
Adding (at ball13 room10)
Adding (free robot3 rgripper3)

Checking next happening (time 15)
Deleting (carry robot2 ball2 lgripper2)
Adding (at ball2 room2)
Adding (free robot2 lgripper2)

Checking next happening (time 16)
Deleting (at ball23 room1)
Deleting (free robot1 lgripper1)
Adding (carry robot1 ball23 lgripper1)

Checking next happening (time 17)
Deleting (at-robby robot1 room1)
Adding (at-robby robot1 room25)

Checking next happening (time 18)
Deleting (at-robby robot3 room10)
Adding (at-robby robot3 room9)

Checking next happening (time 19)
Deleting (at-robby robot2 room2)
Adding (at-robby robot2 room24)

Checking next happening (time 20)
Deleting (carry robot1 ball23 lgripper1)
Adding (at ball23 room25)
Adding (free robot1 lgripper1)

Checking next happening (time 21)
Deleting (at ball16 room25)
Deleting (free robot1 rgripper1)
Adding (carry robot1 ball16 rgripper1)

Checking next happening (time 22)
Deleting (at ball12 room24)
Deleting (free robot2 lgripper2)
Adding (carry robot2 ball12 lgripper2)

Checking next happening (time 23)
Deleting (at ball1 room24)
Deleting (free robot2 rgripper2)
Adding (carry robot2 ball1 rgripper2)

Checking next happening (time 24)
Deleting (at-robby robot3 room9)
Adding (at-robby robot3 room8)

Checking next happening (time 25)
Deleting (at-robby robot1 room25)
Adding (at-robby robot1 room22)

Checking next happening (time 26)
Deleting (at-robby robot2 room24)
Adding (at-robby robot2 room8)

Checking next happening (time 27)
Deleting (at ball20 room8)
Deleting (free robot3 lgripper3)
Adding (carry robot3 ball20 lgripper3)

Checking next happening (time 28)
Deleting (at ball17 room8)
Deleting (free robot3 rgripper3)
Adding (carry robot3 ball17 rgripper3)

Checking next happening (time 29)
Deleting (carry robot1 ball16 rgripper1)
Adding (at ball16 room22)
Adding (free robot1 rgripper1)

Checking next happening (time 30)
Deleting (carry robot2 ball12 lgripper2)
Adding (at ball12 room8)
Adding (free robot2 lgripper2)

Checking next happening (time 31)
Deleting (at-robby robot3 room8)
Adding (at-robby robot3 room26)

Checking next happening (time 32)
Deleting (at-robby robot2 room8)
Adding (at-robby robot2 room6)

Checking next happening (time 33)
Deleting (at-robby robot1 room22)
Adding (at-robby robot1 room20)

Checking next happening (time 34)
Deleting (carry robot3 ball17 rgripper3)
Adding (at ball17 room26)
Adding (free robot3 rgripper3)

Checking next happening (time 35)
Deleting (carry robot2 ball1 rgripper2)
Adding (at ball1 room6)
Adding (free robot2 rgripper2)

Checking next happening (time 36)
Deleting (at ball14 room6)
Deleting (free robot2 lgripper2)
Adding (carry robot2 ball14 lgripper2)

Checking next happening (time 37)
Deleting (at ball7 room20)
Deleting (free robot1 lgripper1)
Adding (carry robot1 ball7 lgripper1)

Checking next happening (time 38)
Deleting (at-robby robot3 room26)
Adding (at-robby robot3 room9)

Checking next happening (time 39)
Deleting (at-robby robot1 room20)
Adding (at-robby robot1 room6)

Checking next happening (time 40)
Deleting (at-robby robot2 room6)
Adding (at-robby robot2 room26)

Checking next happening (time 41)
Deleting (at-robby robot3 room9)
Adding (at-robby robot3 room1)

Checking next happening (time 42)
Deleting (carry robot1 ball7 lgripper1)
Adding (at ball7 room6)
Adding (free robot1 lgripper1)

Checking next happening (time 43)
Deleting (carry robot2 ball14 lgripper2)
Adding (at ball14 room26)
Adding (free robot2 lgripper2)

Checking next happening (time 44)
Deleting (at ball3 room26)
Deleting (free robot2 rgripper2)
Adding (carry robot2 ball3 rgripper2)

Checking next happening (time 45)
Deleting (carry robot3 ball20 lgripper3)
Adding (at ball20 room1)
Adding (free robot3 lgripper3)

Checking next happening (time 46)
Deleting (at ball18 room1)
Deleting (free robot3 rgripper3)
Adding (carry robot3 ball18 rgripper3)

Checking next happening (time 47)
Deleting (at-robby robot2 room26)
Adding (at-robby robot2 room16)

Checking next happening (time 48)
Deleting (at-robby robot3 room1)
Adding (at-robby robot3 room9)

Checking next happening (time 49)
Deleting (at-robby robot1 room6)
Adding (at-robby robot1 room14)

Checking next happening (time 50)
Deleting (at-robby robot1 room14)
Adding (at-robby robot1 room7)

Checking next happening (time 51)
Deleting (carry robot2 ball3 rgripper2)
Adding (at ball3 room16)
Adding (free robot2 rgripper2)

Checking next happening (time 52)
Deleting (carry robot3 ball18 rgripper3)
Adding (at ball18 room9)
Adding (free robot3 rgripper3)

Checking next happening (time 53)
Deleting (at ball8 room7)
Deleting (free robot1 lgripper1)
Adding (carry robot1 ball8 lgripper1)

Checking next happening (time 54)
Deleting (at-robby robot2 room16)
Adding (at-robby robot2 room9)

Checking next happening (time 55)
Deleting (at-robby robot3 room9)
Adding (at-robby robot3 room7)

Checking next happening (time 56)
Deleting (at-robby robot1 room7)
Adding (at-robby robot1 room11)

Checking next happening (time 57)
Deleting (at ball15 room7)
Deleting (free robot3 lgripper3)
Adding (carry robot3 ball15 lgripper3)

Checking next happening (time 58)
Deleting (at-robby robot2 room9)
Adding (at-robby robot2 room5)

Checking next happening (time 59)
Deleting (carry robot1 ball8 lgripper1)
Adding (at ball8 room11)
Adding (free robot1 lgripper1)

Checking next happening (time 60)
Deleting (at-robby robot3 room7)
Adding (at-robby robot3 room14)

Checking next happening (time 61)
Deleting (at ball6 room5)
Deleting (free robot2 lgripper2)
Adding (carry robot2 ball6 lgripper2)

Checking next happening (time 62)
Deleting (carry robot3 ball15 lgripper3)
Adding (at ball15 room14)
Adding (free robot3 lgripper3)

Checking next happening (time 63)
Deleting (at-robby robot2 room5)
Adding (at-robby robot2 room9)

Checking next happening (time 64)
Deleting (at-robby robot1 room11)
Adding (at-robby robot1 room7)

Checking next happening (time 65)
Deleting (carry robot2 ball6 lgripper2)
Adding (at ball6 room9)
Adding (free robot2 lgripper2)

Checking next happening (time 66)
Deleting (at-robby robot3 room14)
Adding (at-robby robot3 room23)

Checking next happening (time 67)
Deleting (at-robby robot1 room7)
Adding (at-robby robot1 room5)

Checking next happening (time 68)
Deleting (at ball5 room23)
Deleting (free robot3 lgripper3)
Adding (carry robot3 ball5 lgripper3)

Checking next happening (time 69)
Deleting (at-robby robot2 room9)
Adding (at-robby robot2 room7)

Checking next happening (time 70)
Deleting (at ball24 room5)
Deleting (free robot1 lgripper1)
Adding (carry robot1 ball24 lgripper1)

Checking next happening (time 71)
Deleting (at-robby robot3 room23)
Adding (at-robby robot3 room14)

Checking next happening (time 72)
Deleting (at-robby robot1 room5)
Adding (at-robby robot1 room21)

Checking next happening (time 73)
Deleting (at-robby robot2 room7)
Adding (at-robby robot2 room5)

Checking next happening (time 74)
Deleting (carry robot3 ball5 lgripper3)
Adding (at ball5 room14)
Adding (free robot3 lgripper3)

Checking next happening (time 75)
Deleting (carry robot1 ball24 lgripper1)
Adding (at ball24 room21)
Adding (free robot1 lgripper1)

Checking next happening (time 76)
Deleting (at ball11 room21)
Deleting (free robot1 rgripper1)
Adding (carry robot1 ball11 rgripper1)

Checking next happening (time 77)
Deleting (at-robby robot2 room5)
Adding (at-robby robot2 room26)

Checking next happening (time 78)
Deleting (at-robby robot1 room21)
Adding (at-robby robot1 room7)

Checking next happening (time 79)
Deleting (at-robby robot3 room14)
Adding (at-robby robot3 room5)

Checking next happening (time 80)
Deleting (at ball10 room26)
Deleting (free robot2 lgripper2)
Adding (carry robot2 ball10 lgripper2)

Checking next happening (time 81)
Deleting (carry robot1 ball11 rgripper1)
Adding (at ball11 room7)
Adding (free robot1 rgripper1)

Checking next happening (time 82)
Deleting (at-robby robot2 room26)
Adding (at-robby robot2 room5)

Checking next happening (time 83)
Deleting (at-robby robot3 room5)
Adding (at-robby robot3 room18)

Checking next happening (time 84)
Deleting (carry robot2 ball10 lgripper2)
Adding (at ball10 room5)
Adding (free robot2 lgripper2)

Checking next happening (time 85)
Deleting (at ball22 room18)
Deleting (free robot3 lgripper3)
Adding (carry robot3 ball22 lgripper3)

Checking next happening (time 86)
Deleting (at ball21 room18)
Deleting (free robot3 rgripper3)
Adding (carry robot3 ball21 rgripper3)

Checking next happening (time 87)
Deleting (at-robby robot3 room18)
Adding (at-robby robot3 room26)

Checking next happening (time 88)
Deleting (carry robot3 ball22 lgripper3)
Adding (at ball22 room26)
Adding (free robot3 lgripper3)

Checking next happening (time 89)
Deleting (at-robby robot3 room26)
Adding (at-robby robot3 room14)

Checking next happening (time 90)
Deleting (carry robot3 ball21 rgripper3)
Adding (at ball21 room14)
Adding (free robot3 rgripper3)
Plan executed successfully - checking goal
Plan valid
Final value: 90 

Successful plans:
Value: 90
 /home/jfan5/Safety-gen/runs/benchmark/optic/grippers_20260215_225302/grippers/optic_results/grippers-n3-r26-o24-s24001.plan 90
